<?xml version = "1.0" standalone="yes"?>
<!-- This file has been generated by DOcplex version 2.23.222  -->
<CPLEXSolution version="1.0">
 <header
   problemName="CVRP"
   objectiveValue="7460.57"
  />
 <variables>
  <variable name="x_0_2" index="1" value="1.00000"/>
  <variable name="x_0_3" index="2" value="1.00000"/>
  <variable name="x_0_4" index="3" value="1.00000"/>
  <variable name="x_0_6" index="5" value="1.00000"/>
  <variable name="x_0_7" index="6" value="1.00000"/>
  <variable name="x_0_8" index="7" value="1.00000"/>
  <variable name="x_0_10" index="9" value="1.00000"/>
  <variable name="x_0_11" index="10" value="1.00000"/>
  <variable name="x_0_12" index="11" value="1.00000"/>
  <variable name="x_1_5" index="16" value="1.00000"/>
  <variable name="x_2_0" index="24" value="1.00000"/>
  <variable name="x_3_0" index="36" value="1.00000"/>
  <variable name="x_4_0" index="48" value="1.00000"/>
  <variable name="x_5_9" index="68" value="1.00000"/>
  <variable name="x_6_0" index="72" value="1.00000"/>
  <variable name="x_7_0" index="84" value="1.00000"/>
  <variable name="x_8_0" index="96" value="1.00000"/>
  <variable name="x_9_0" index="108" value="1.00000"/>
  <variable name="x_10_0" index="120" value="1.00000"/>
  <variable name="x_11_0" index="132" value="1.00000"/>
  <variable name="x_12_1" index="145" value="1.00000"/>
  <variable name="u_1" index="156" value="28.00000"/>
  <variable name="u_2" index="157" value="58.00000"/>
  <variable name="u_3" index="158" value="65.00000"/>
  <variable name="u_4" index="159" value="38.00000"/>
  <variable name="u_5" index="160" value="32.00000"/>
  <variable name="u_6" index="161" value="38.00000"/>
  <variable name="u_7" index="162" value="65.00000"/>
  <variable name="u_8" index="163" value="50.00000"/>
  <variable name="u_9" index="164" value="65.00000"/>
  <variable name="u_10" index="165" value="43.00000"/>
  <variable name="u_11" index="166" value="65.00000"/>
  <variable name="u_12" index="167" value="2.00000"/>
 </variables>
</CPLEXSolution>
